Traveling Salesman Problem/TSP_generados/Aleatorio1621103280_7.tsp
NAME: Aleatorio1621103280_7.tsp
COMMENT: Randomly generated scenario
TYPE: TSP
DIMENSION: 7
EDGE_WEIGHT_TYPE: ATT
NODE_COORD_SECTION
1 46.11 33.57
2 38.91 30.52
3 17.07 48.79
4 0.89 0.92
5 41.88 45.29
6 16.27 24.53
7 31.05 26.51
