Traveling Salesman Problem/TSP_generados/Aleatorio1621103280_7.opt.tour
NAME: Aleatorio1621103280_7.opt.tour
COMMENT: Optimal solution for Aleatorio1621103280_7 (146.16303323871708)
TYPE: TOUR
DIMENSION: 7
TOUR_SECTION
1 2 7 4 6 3 5
-1
EOF
